expected_failures_A=20;
expected_failures_B=20;
expected_failures_C=19;
s=3;
hints=[|
1,0,0,9,0,7,0,0,3|
0,8,0,0,0,0,0,7,0|
0,0,9,0,0,0,6,0,0|
0,0,7,2,0,9,4,0,0|
4,1,0,0,0,0,0,9,5|
0,0,8,5,0,4,3,0,0|
0,0,3,0,0,0,7,0,0|
0,5,0,0,0,0,0,4,0|
2,0,0,8,0,6,0,0,9|];
